750
750
600
600
599
599
599
598
597
597
597
597
596
596
596
595
595
595
595
595
595
593
592
591
591
591
591
588
586
586
585
585
584
584
584
584
583
583
582
581
581
580
580
578
578
576
575
575
574
574
573
571
571
569
567
567
566
566
565
564
564
564
564
563
563
563
563
562
562
561
561
560
560
559
559
558
558
557
557
557
557
556
554
553
553
552
552
551
551
550
550
550
548
548
547
547
546
546
545
545
544
544
544
543
541
541
540
539
536
536
536
535
535
535
534
533
533
533
532
531
530
530
530
528
528
528
528
528
527
526
524
524
523
522
522
521
520
520
520
519
519
518
518
518
517
517
516
516
516
514
514
514
513
512
511
510
509
509
508
508
508
508
507
506
506
505
504
504
503
503
501
501
500
499
499
497
497
497
497
496
495
495
495
494
491
491
491
490
490
490
488
488
487
486
485
485
484
483
482
482
482
479
479
479
479
479
477
477
476
476
476
475
474
474
474
474
474
471
471
471
470
470
470
469
468
468
467
466
465
465
465
464
464
464
463
462
462
461
460
460
459
459
459
458
457
457
456
455
454
454
454
453
453
452
452
452
450
450
450
448
448
447
447
446
446
445
444
444
444
443
442
441
441
441
440
440
439
438
438
436
435
435
434
434
434
434
433
433
432
432
431
431
431
430
430
430
430
430
430
428
425
425
424
424
424
424
424
421
420
419
419
419
419
418
417
417
417
417
417
414
414
414
414
412
412
411
411
410
410
410
409
408
407
406
405
405
403
403
402
400
400
400
399
399
399
399
397
396
395
393
392
392
392
391
390
389
389
389
388
388
387
387
386
385
385
383
383
383
382
382
382
382
381
381
381
380
380
380
379
379
379
378
378
377
375
375
374
374
373
373
373
372
371
370
370
369
367
367
367
366
366
366
366
364
364
363
361
360
359
359
359
359
358
357
356
355
355
355
355
355
354
353
352
352
350
347
347
347
345
345
345
345
344
343
343
343
343
342
341
341
340
340
340
340
339
339
339
339
339
338
337
337
336
335
335
335
333
333
333
333
333
333
333
332
332
332
332
331
331
331
330
329
328
328
327
327
326
326
326
325
325
325
325
325
324
324
323
323
323
322
322
321
321
321
320
320
320
320
319
318
318
318
317
316
316
315
314
314
314
314
313
313
313
313
312
311
311
310
309
309
308
306
305
305
304
304
303
302
301
299
298
297
295
295
294
294
293
293
293
291
291
291
291
290
290
288
288
287
287
286
286
285
284
284
284
284
283
282
281
280
280
279
278
277
277
276
276
275
274
273
272
270
269
269
269
267
267
266
266
266
265
264
263
263
262
262
262
262
262
261
260
260
259
258
257
257
257
256
255
253
253
252
252
252
252
251
251
251
250
250
249
249
248
248
248
248
247
247
246
245
245
245
245
245
243
242
242
242
241
240
239
239
239
237
237
235
235
235
234
234
232
232
231
229
227
226
225
225
223
222
222
221
221
220
219
219
219
217
217
214
214
213
213
212
211
211
209
208
207
206
205
205
204
202
201
199
198
197
196
196
193
192
192
192
192
192
191
190
190
189
189
186
186
186
185
184
183
182
181
180
179
178
177
177
177
176
176
175
174
174
173
173
172
172
172
172
172
171
170
169
167
166
166
166
166
165
165
165
164
163
162
161
161
160
158
158
157
157
156
156
155
154
154
154
154
153
152
152
151
151
151
150
